p edge 100 509
v 1 3
v 2 1
v 3 2
v 4 5
v 5 3
v 6 5
v 7 5
v 8 4
v 9 2
v 10 2
v 11 5
v 12 1
v 13 3
v 14 4
v 15 3
v 16 1
v 17 2
v 18 3
v 19 3
v 20 4
v 21 2
v 22 3
v 23 1
v 24 1
v 25 2
v 26 5
v 27 5
v 28 1
v 29 1
v 30 3
v 31 4
v 32 4
v 33 3
v 34 5
v 35 4
v 36 1
v 37 5
v 38 4
v 39 4
v 40 1
v 41 1
v 42 4
v 43 2
v 44 3
v 45 2
v 46 5
v 47 4
v 48 4
v 49 2
v 50 2
v 51 3
v 52 4
v 53 4
v 54 3
v 55 4
v 56 5
v 57 3
v 58 4
v 59 1
v 60 4
v 61 1
v 62 4
v 63 2
v 64 4
v 65 4
v 66 5
v 67 4
v 68 4
v 69 3
v 70 3
v 71 4
v 72 3
v 73 1
v 74 1
v 75 1
v 76 3
v 77 5
v 78 4
v 79 1
v 80 1
v 81 1
v 82 3
v 83 5
v 84 4
v 85 1
v 86 3
v 87 4
v 88 3
v 89 2
v 90 4
v 91 1
v 92 2
v 93 3
v 94 3
v 95 5
v 96 2
v 97 3
v 98 4
v 99 5
v 100 1
e 1 21
e 1 40
e 1 63
e 1 73
e 1 80
e 1 81
e 1 84
e 1 96
e 1 99
e 2 10
e 2 12
e 2 19
e 2 43
e 2 71
e 2 72
e 2 74
e 2 90
e 2 96
e 3 22
e 3 26
e 3 30
e 3 45
e 3 50
e 3 51
e 3 79
e 3 82
e 4 28
e 4 30
e 4 43
e 4 62
e 4 69
e 4 77
e 4 80
e 4 91
e 4 98
e 5 9
e 5 31
e 5 40
e 5 42
e 5 47
e 5 53
e 5 55
e 5 63
e 5 79
e 5 82
e 5 100
e 6 13
e 6 23
e 6 24
e 6 32
e 6 35
e 6 37
e 6 40
e 6 45
e 6 48
e 6 50
e 6 51
e 6 69
e 6 95
e 6 98
e 7 13
e 7 31
e 7 33
e 7 44
e 7 48
e 7 53
e 7 69
e 7 72
e 7 78
e 7 83
e 8 13
e 8 19
e 8 20
e 8 39
e 8 45
e 8 48
e 8 57
e 8 64
e 8 75
e 8 81
e 8 95
e 8 100
e 9 11
e 9 39
e 9 45
e 9 46
e 9 62
e 9 66
e 9 98
e 9 100
e 10 13
e 10 100
e 11 21
e 11 34
e 11 52
e 11 54
e 11 65
e 11 89
e 12 18
e 12 20
e 12 22
e 12 41
e 12 51
e 12 56
e 12 62
e 12 65
e 12 78
e 12 90
e 12 96
e 13 60
e 13 80
e 13 88
e 14 25
e 14 33
e 14 36
e 14 39
e 14 48
e 14 55
e 14 66
e 14 74
e 14 79
e 14 83
e 15 19
e 15 20
e 15 32
e 15 43
e 15 56
e 15 60
e 15 79
e 15 94
e 15 99
e 16 22
e 16 23
e 16 24
e 16 28
e 16 36
e 16 40
e 16 48
e 16 53
e 16 61
e 16 69
e 16 75
e 16 80
e 16 87
e 17 26
e 17 29
e 17 34
e 17 44
e 17 46
e 17 50
e 17 60
e 17 64
e 17 67
e 17 100
e 18 21
e 18 46
e 18 50
e 18 53
e 18 54
e 18 72
e 18 86
e 18 87
e 18 90
e 18 94
e 18 98
e 19 20
e 19 25
e 19 37
e 19 48
e 19 56
e 19 84
e 19 87
e 19 96
e 20 21
e 20 28
e 20 37
e 20 46
e 20 54
e 20 67
e 20 87
e 21 36
e 21 43
e 21 65
e 21 71
e 21 80
e 21 86
e 21 94
e 21 97
e 21 99
e 22 29
e 22 32
e 22 39
e 22 57
e 22 63
e 22 72
e 23 32
e 23 37
e 23 54
e 23 60
e 23 65
e 23 69
e 23 73
e 23 95
e 23 97
e 23 100
e 24 37
e 24 43
e 24 46
e 24 63
e 24 70
e 24 82
e 24 83
e 25 29
e 25 54
e 25 58
e 25 75
e 25 83
e 25 86
e 25 94
e 25 96
e 26 31
e 26 37
e 26 40
e 26 52
e 26 58
e 26 68
e 26 70
e 26 78
e 26 80
e 26 85
e 26 88
e 26 95
e 26 97
e 27 51
e 27 68
e 27 76
e 27 78
e 27 83
e 27 85
e 27 98
e 28 44
e 28 49
e 28 50
e 28 72
e 28 88
e 29 35
e 29 42
e 29 66
e 29 68
e 29 72
e 29 78
e 29 82
e 29 83
e 29 86
e 29 89
e 29 90
e 29 95
e 29 96
e 30 55
e 30 84
e 30 87
e 30 97
e 31 45
e 31 47
e 31 48
e 31 59
e 31 71
e 31 75
e 31 76
e 31 100
e 32 33
e 32 34
e 32 39
e 32 47
e 32 51
e 32 66
e 32 70
e 32 73
e 32 75
e 32 78
e 32 79
e 32 89
e 32 90
e 33 39
e 33 40
e 33 41
e 33 51
e 33 67
e 33 83
e 33 93
e 34 35
e 34 43
e 34 54
e 34 55
e 34 81
e 34 89
e 34 94
e 34 100
e 35 40
e 35 73
e 35 89
e 35 90
e 36 39
e 36 40
e 36 70
e 36 89
e 36 92
e 36 96
e 37 49
e 37 56
e 37 92
e 37 93
e 37 94
e 37 96
e 38 40
e 38 46
e 38 59
e 38 71
e 38 74
e 38 96
e 39 54
e 39 56
e 39 65
e 39 78
e 39 89
e 39 90
e 39 98
e 40 51
e 40 60
e 40 64
e 40 72
e 40 75
e 40 80
e 40 98
e 41 42
e 41 44
e 41 55
e 41 56
e 41 76
e 41 78
e 41 83
e 41 85
e 41 88
e 42 45
e 42 46
e 42 53
e 42 58
e 42 61
e 42 89
e 42 91
e 42 98
e 43 55
e 43 59
e 43 67
e 43 69
e 43 71
e 43 77
e 43 82
e 43 89
e 43 97
e 44 48
e 44 51
e 44 78
e 44 89
e 44 95
e 44 100
e 45 51
e 45 77
e 45 83
e 45 95
e 46 52
e 46 55
e 46 58
e 46 63
e 46 73
e 46 75
e 46 85
e 46 94
e 47 51
e 47 61
e 47 83
e 47 95
e 47 98
e 48 73
e 48 82
e 48 85
e 49 51
e 49 54
e 49 69
e 49 78
e 49 85
e 50 62
e 50 77
e 50 89
e 51 58
e 51 60
e 51 61
e 51 71
e 51 73
e 51 88
e 51 99
e 52 61
e 52 63
e 52 70
e 52 77
e 52 79
e 52 87
e 53 97
e 54 73
e 54 94
e 55 56
e 55 63
e 55 69
e 55 77
e 55 78
e 55 85
e 55 92
e 55 97
e 55 100
e 56 98
e 57 65
e 57 78
e 57 93
e 58 64
e 58 78
e 58 82
e 58 89
e 58 100
e 59 84
e 59 89
e 59 97
e 60 85
e 60 90
e 60 94
e 61 62
e 61 69
e 61 83
e 61 86
e 61 93
e 61 99
e 61 100
e 62 64
e 62 73
e 62 82
e 62 84
e 63 65
e 63 79
e 63 82
e 63 89
e 64 68
e 64 75
e 64 100
e 65 77
e 65 84
e 65 97
e 66 70
e 66 74
e 66 77
e 66 79
e 67 70
e 67 89
e 68 72
e 68 73
e 69 77
e 69 78
e 70 90
e 71 84
e 72 84
e 72 96
e 72 100
e 73 92
e 73 99
e 74 78
e 74 81
e 74 83
e 74 84
e 74 93
e 75 77
e 75 78
e 75 80
e 75 89
e 75 90
e 76 99
e 77 82
e 77 90
e 77 92
e 77 94
e 78 83
e 78 88
e 79 84
e 79 89
e 79 92
e 80 89
e 81 83
e 81 87
e 81 88
e 82 85
e 82 87
e 82 93
e 83 99
e 84 89
e 84 100
e 87 92
e 88 90
e 89 96
e 90 99
e 91 95
e 95 98
e 96 99
